Er Li Y  F                              
   1.00000000000000     
    10.2721937310599714    0.0000000000000000    0.0000000000000000
    -0.0660690007371000   10.3016775038005282    0.0000000000000000
    -5.0967576476637122   -5.1387478443746399   10.7260891882072258
   Er   Li   Y    F 
     1    16    15    64
Direct
  0.5623805279248199  0.6872936139270066  0.6247285710314636
  0.1868423586440860  0.0616213998504837  0.3733222647500331
  0.3132194252073016  0.4383540283600067  0.1266482058887061
  0.1867817912830845  0.0615834670497456  0.8733676583234394
  0.3136267298687115  0.4387058286884166  0.6265033196462962
  0.1874516156554010  0.5620549739258957  0.3738155697757606
  0.3132229728164244  0.9383565043855582  0.1266548292056706
  0.1868049431950575  0.5617255437336984  0.8733681226874629
  0.3136979507333301  0.9379427485169807  0.6268022586149398
  0.6866960473890488  0.0616412415621928  0.3733234186657719
  0.8132211298730055  0.4383578715916988  0.1266562539563021
  0.6867124299098436  0.0609950203357475  0.8728906704548863
  0.8128961407675289  0.4389085482524119  0.6268098548954415
  0.6865916159971953  0.5617182939022110  0.3738052175119903
  0.8132225351100874  0.9383596000148148  0.1266618794793933
  0.6863934473845366  0.5618457077543537  0.8728976894843988
  0.8126523674432905  0.9378548949888349  0.6264943019863308
  0.0625143375213031  0.1872009812065219  0.1247646146217165
  0.4379772509497845  0.3135583619787043  0.3757517898497499
  0.0623878850206055  0.1872877964793378  0.6247385293493609
  0.4376455183416514  0.3127341492097958  0.8752780203765806
  0.0624798626949706  0.6873911071004687  0.1247097289225770
  0.4377517030378430  0.8123624045046347  0.3757463192354139
  0.0623697985535180  0.6872684238880146  0.6246964540811708
  0.4379711430713222  0.8123538276227086  0.8747845370861609
  0.5622668204863041  0.1871584720853764  0.1247126140110727
  0.9375916425524715  0.3127317688758667  0.3752526018310648
  0.5624060383970093  0.1873066733552076  0.6247746203763354
  0.9375968306559608  0.3127048643543356  0.8752761132705054
  0.5622815535430973  0.6874016760698906  0.1247610318100721
  0.9376197428832016  0.8126832185538642  0.3752515985543468
  0.9367802419953275  0.8125930167096819  0.8747858096965067
  0.2298618555233547  0.3822147434300736  0.2938674634074123
  0.1323655847401983  0.3154011749732021  0.0440530185188808
  0.4362631328688313  0.3386724131623966  0.2065222746225589
  0.4116085949838182  0.4786327525614836  0.0439564874300393
  0.2704428570018140  0.1182551798435720  0.2066125658156101
  0.0638988894156784  0.1616183753030251  0.2938001263238198
  0.0883772242948976  0.0213995053637843  0.4560651543098905
  0.3677067932487352  0.1852504118907688  0.4561170502941715
  0.2297132561163736  0.3820335115935770  0.7936010982575612
  0.1324775531341562  0.3154795969464028  0.5440411511134702
  0.4360536916183068  0.3384238173378994  0.7061388436127085
  0.4131064186576873  0.4805771336391705  0.5451396844570264
  0.2703392324530458  0.1178280516565020  0.7063910170283129
  0.0639511120462691  0.1616735561631368  0.7938310806846066
  0.0881224764230465  0.0211567783741826  0.9559183508256222
  0.3676471294306292  0.1846416104492249  0.9560026522604642
  0.2299536736693235  0.8819277194670099  0.2937437720627672
  0.1320323526176293  0.8153553566191440  0.0438133412207351
  0.4361043484422544  0.8382531817526936  0.2063735625312018
  0.4117026800970126  0.9784493210649630  0.0437261828632336
  0.2704271321012612  0.6179773388112407  0.2067626485833806
  0.0641552354224551  0.6616863964394277  0.2939464647012774
  0.0884550416177414  0.5213855117361400  0.4560757043778328
  0.3689951268139269  0.6843209828598288  0.4571647255833929
  0.2302427936746427  0.8820087830576396  0.7934538681464816
  0.1324527541263792  0.8154111752743618  0.5440602460124992
  0.4366970849784425  0.8368129234373096  0.7049704324794305
  0.4114765122902860  0.9786874925288036  0.5438808996319660
  0.2701829298788038  0.6178702216361724  0.7064637951248720
  0.0632676879093266  0.6615489737683199  0.7936796232906345
  0.0884328072142970  0.5213796561346995  0.9560972557399320
  0.3677773425258408  0.6846871478227501  0.9558376861838790
  0.7296279926120488  0.3821306788035099  0.2937105103168686
  0.6323018333642456  0.3153866618040700  0.0440338160967915
  0.9360747886850137  0.3382942952982951  0.2061661954323250
  0.9116579337459514  0.4786325690270485  0.0439401479127730
  0.7702553815210119  0.1179300264687719  0.2063797763638545
  0.5638580399062766  0.1619233941562812  0.2939767543151080
  0.5884956394958161  0.0208741863222431  0.4562110196889508
  0.8676725531947745  0.1845896079517139  0.4559731777530890
  0.7297292806380271  0.3821092337177804  0.7935870323893921
  0.6324148095400405  0.3152719978887004  0.5439757650131987
  0.9359880031118933  0.3384587703429002  0.7061626689595759
  0.9115356526821184  0.4786355010500580  0.5439678539271938
  0.7702517283449958  0.1178412791740492  0.7063701475873674
  0.5639252899356616  0.1615836854692544  0.7938151217798006
  0.5882788626801935  0.0212418763893492  0.9557868450709226
  0.8675669886527118  0.1843782297246440  0.9558518918102422
  0.7297390240898320  0.8820606734807481  0.2935677913674451
  0.6323176485513381  0.8152022732912819  0.0436980741068318
  0.9360637709703785  0.8383430925789461  0.2061489195245006
  0.9112836169503848  0.9784688109274541  0.0435925656940820
  0.7702616779480503  0.6179949862926816  0.2063922481738503
  0.5640716140256853  0.6617587691196756  0.2940794804427952
  0.5883425128323148  0.5228104757702130  0.4572097526662589
  0.8676060855733668  0.6846136253959449  0.4559827942799563
  0.7282017828796837  0.8807225788430628  0.7924107965139522
  0.6320712920820694  0.8146883259787348  0.5451723110170906
  0.9362001322666617  0.8384814993258140  0.7062353203005451
  0.9114886734475219  0.9785455888348944  0.5439435364308882
  0.7683169627207106  0.6182449177314085  0.7052085678408437
  0.5642079320664121  0.6617493188284846  0.7926637564661712
  0.5883607227199437  0.5214906709811445  0.9559553750749352
  0.8674860685212775  0.6844655750974687  0.9556872887558054
 
  0.00000000E+00  0.00000000E+00  0.00000000E+00
  0.00000000E+00  0.00000000E+00  0.00000000E+00
  0.00000000E+00  0.00000000E+00  0.00000000E+00
  0.00000000E+00  0.00000000E+00  0.00000000E+00
  0.00000000E+00  0.00000000E+00  0.00000000E+00
  0.00000000E+00  0.00000000E+00  0.00000000E+00
  0.00000000E+00  0.00000000E+00  0.00000000E+00
  0.00000000E+00  0.00000000E+00  0.00000000E+00
  0.00000000E+00  0.00000000E+00  0.00000000E+00
  0.00000000E+00  0.00000000E+00  0.00000000E+00
  0.00000000E+00  0.00000000E+00  0.00000000E+00
  0.00000000E+00  0.00000000E+00  0.00000000E+00
  0.00000000E+00  0.00000000E+00  0.00000000E+00
  0.00000000E+00  0.00000000E+00  0.00000000E+00
  0.00000000E+00  0.00000000E+00  0.00000000E+00
  0.00000000E+00  0.00000000E+00  0.00000000E+00
  0.00000000E+00  0.00000000E+00  0.00000000E+00
  0.00000000E+00  0.00000000E+00  0.00000000E+00
  0.00000000E+00  0.00000000E+00  0.00000000E+00
  0.00000000E+00  0.00000000E+00  0.00000000E+00
  0.00000000E+00  0.00000000E+00  0.00000000E+00
  0.00000000E+00  0.00000000E+00  0.00000000E+00
  0.00000000E+00  0.00000000E+00  0.00000000E+00
  0.00000000E+00  0.00000000E+00  0.00000000E+00
  0.00000000E+00  0.00000000E+00  0.00000000E+00
  0.00000000E+00  0.00000000E+00  0.00000000E+00
  0.00000000E+00  0.00000000E+00  0.00000000E+00
  0.00000000E+00  0.00000000E+00  0.00000000E+00
  0.00000000E+00  0.00000000E+00  0.00000000E+00
  0.00000000E+00  0.00000000E+00  0.00000000E+00
  0.00000000E+00  0.00000000E+00  0.00000000E+00
  0.00000000E+00  0.00000000E+00  0.00000000E+00
  0.00000000E+00  0.00000000E+00  0.00000000E+00
  0.00000000E+00  0.00000000E+00  0.00000000E+00
  0.00000000E+00  0.00000000E+00  0.00000000E+00
  0.00000000E+00  0.00000000E+00  0.00000000E+00
  0.00000000E+00  0.00000000E+00  0.00000000E+00
  0.00000000E+00  0.00000000E+00  0.00000000E+00
  0.00000000E+00  0.00000000E+00  0.00000000E+00
  0.00000000E+00  0.00000000E+00  0.00000000E+00
  0.00000000E+00  0.00000000E+00  0.00000000E+00
  0.00000000E+00  0.00000000E+00  0.00000000E+00
  0.00000000E+00  0.00000000E+00  0.00000000E+00
  0.00000000E+00  0.00000000E+00  0.00000000E+00
  0.00000000E+00  0.00000000E+00  0.00000000E+00
  0.00000000E+00  0.00000000E+00  0.00000000E+00
  0.00000000E+00  0.00000000E+00  0.00000000E+00
  0.00000000E+00  0.00000000E+00  0.00000000E+00
  0.00000000E+00  0.00000000E+00  0.00000000E+00
  0.00000000E+00  0.00000000E+00  0.00000000E+00
  0.00000000E+00  0.00000000E+00  0.00000000E+00
  0.00000000E+00  0.00000000E+00  0.00000000E+00
  0.00000000E+00  0.00000000E+00  0.00000000E+00
  0.00000000E+00  0.00000000E+00  0.00000000E+00
  0.00000000E+00  0.00000000E+00  0.00000000E+00
  0.00000000E+00  0.00000000E+00  0.00000000E+00
  0.00000000E+00  0.00000000E+00  0.00000000E+00
  0.00000000E+00  0.00000000E+00  0.00000000E+00
  0.00000000E+00  0.00000000E+00  0.00000000E+00
  0.00000000E+00  0.00000000E+00  0.00000000E+00
  0.00000000E+00  0.00000000E+00  0.00000000E+00
  0.00000000E+00  0.00000000E+00  0.00000000E+00
  0.00000000E+00  0.00000000E+00  0.00000000E+00
  0.00000000E+00  0.00000000E+00  0.00000000E+00
  0.00000000E+00  0.00000000E+00  0.00000000E+00
  0.00000000E+00  0.00000000E+00  0.00000000E+00
  0.00000000E+00  0.00000000E+00  0.00000000E+00
  0.00000000E+00  0.00000000E+00  0.00000000E+00
  0.00000000E+00  0.00000000E+00  0.00000000E+00
  0.00000000E+00  0.00000000E+00  0.00000000E+00
  0.00000000E+00  0.00000000E+00  0.00000000E+00
  0.00000000E+00  0.00000000E+00  0.00000000E+00
  0.00000000E+00  0.00000000E+00  0.00000000E+00
  0.00000000E+00  0.00000000E+00  0.00000000E+00
  0.00000000E+00  0.00000000E+00  0.00000000E+00
  0.00000000E+00  0.00000000E+00  0.00000000E+00
  0.00000000E+00  0.00000000E+00  0.00000000E+00
  0.00000000E+00  0.00000000E+00  0.00000000E+00
  0.00000000E+00  0.00000000E+00  0.00000000E+00
  0.00000000E+00  0.00000000E+00  0.00000000E+00
  0.00000000E+00  0.00000000E+00  0.00000000E+00
  0.00000000E+00  0.00000000E+00  0.00000000E+00
  0.00000000E+00  0.00000000E+00  0.00000000E+00
  0.00000000E+00  0.00000000E+00  0.00000000E+00
  0.00000000E+00  0.00000000E+00  0.00000000E+00
  0.00000000E+00  0.00000000E+00  0.00000000E+00
  0.00000000E+00  0.00000000E+00  0.00000000E+00
  0.00000000E+00  0.00000000E+00  0.00000000E+00
  0.00000000E+00  0.00000000E+00  0.00000000E+00
  0.00000000E+00  0.00000000E+00  0.00000000E+00
  0.00000000E+00  0.00000000E+00  0.00000000E+00
  0.00000000E+00  0.00000000E+00  0.00000000E+00
  0.00000000E+00  0.00000000E+00  0.00000000E+00
  0.00000000E+00  0.00000000E+00  0.00000000E+00
  0.00000000E+00  0.00000000E+00  0.00000000E+00
  0.00000000E+00  0.00000000E+00  0.00000000E+00
